(set-logic QF_LIA)
(set-info :ran/ran2.smt2)
(set-info :smt-lib-version 2.0)
(declare-fun x1 () Int)
(declare-fun x2 () Int)
(declare-fun x3 () Int)
(assert (<= (+ (* (- 10) x1) (* (- 3) x2) (* (- 1) x3) ) 1998))
(assert (<= (+ (* (- 3) x1) (* (- 1) x2) (* (- 5) x3) ) 2038))
(assert (<= (+ (* (- 1) x1) (* 3 x2) (* 10 x3) ) 6009))
(assert (<= (+ (* (- 5) x1) (* 9 x2) (* 4 x3) ) (- 440)))
(assert (<= (+ (* 0 x1) (* (- 8) x2) (* (- 5) x3) ) 5254))
(assert (<= (+ (* 9 x1) (* (- 5) x2) (* (- 6) x3) ) 2952))
(assert (<= (+ (* 1 x1) (* 0 x2) (* 0 x3) ) 7943))
(assert (<= (+ (* (- 1) x1) (* 0 x2) (* 0 x3) ) 7943))
(assert (<= (+ (* 0 x1) (* 1 x2) (* 0 x3) ) 7943))
(assert (<= (+ (* 0 x1) (* (- 1) x2) (* 0 x3) ) 7943))
(assert (<= (+ (* 0 x1) (* 0 x2) (* 1 x3) ) 7943))
(assert (<= (+ (* 0 x1) (* 0 x2) (* (- 1) x3) ) 7943))
